*Heading
 crack-band mesh-objectivity bar, 10 x 2 x 2 cubic C3D8, h=0.1 mm
*Node
1, 0, 0, 0
2, 0, 0, 0.1
3, 0, 0, 0.2
4, 0, 0.1, 0
5, 0, 0.1, 0.1
6, 0, 0.1, 0.2
7, 0, 0.2, 0
8, 0, 0.2, 0.1
9, 0, 0.2, 0.2
10, 0.1, 0, 0
11, 0.1, 0, 0.1
12, 0.1, 0, 0.2
13, 0.1, 0.1, 0
14, 0.1, 0.1, 0.1
15, 0.1, 0.1, 0.2
16, 0.1, 0.2, 0
17, 0.1, 0.2, 0.1
18, 0.1, 0.2, 0.2
19, 0.2, 0, 0
20, 0.2, 0, 0.1
21, 0.2, 0, 0.2
22, 0.2, 0.1, 0
23, 0.2, 0.1, 0.1
24, 0.2, 0.1, 0.2
25, 0.2, 0.2, 0
26, 0.2, 0.2, 0.1
27, 0.2, 0.2, 0.2
28, 0.3, 0, 0
29, 0.3, 0, 0.1
30, 0.3, 0, 0.2
31, 0.3, 0.1, 0
32, 0.3, 0.1, 0.1
33, 0.3, 0.1, 0.2
34, 0.3, 0.2, 0
35, 0.3, 0.2, 0.1
36, 0.3, 0.2, 0.2
37, 0.4, 0, 0
38, 0.4, 0, 0.1
39, 0.4, 0, 0.2
40, 0.4, 0.1, 0
41, 0.4, 0.1, 0.1
42, 0.4, 0.1, 0.2
43, 0.4, 0.2, 0
44, 0.4, 0.2, 0.1
45, 0.4, 0.2, 0.2
46, 0.5, 0, 0
47, 0.5, 0, 0.1
48, 0.5, 0, 0.2
49, 0.5, 0.1, 0
50, 0.5, 0.1, 0.1
51, 0.5, 0.1, 0.2
52, 0.5, 0.2, 0
53, 0.5, 0.2, 0.1
54, 0.5, 0.2, 0.2
55, 0.6, 0, 0
56, 0.6, 0, 0.1
57, 0.6, 0, 0.2
58, 0.6, 0.1, 0
59, 0.6, 0.1, 0.1
60, 0.6, 0.1, 0.2
61, 0.6, 0.2, 0
62, 0.6, 0.2, 0.1
63, 0.6, 0.2, 0.2
64, 0.7, 0, 0
65, 0.7, 0, 0.1
66, 0.7, 0, 0.2
67, 0.7, 0.1, 0
68, 0.7, 0.1, 0.1
69, 0.7, 0.1, 0.2
70, 0.7, 0.2, 0
71, 0.7, 0.2, 0.1
72, 0.7, 0.2, 0.2
73, 0.8, 0, 0
74, 0.8, 0, 0.1
75, 0.8, 0, 0.2
76, 0.8, 0.1, 0
77, 0.8, 0.1, 0.1
78, 0.8, 0.1, 0.2
79, 0.8, 0.2, 0
80, 0.8, 0.2, 0.1
81, 0.8, 0.2, 0.2
82, 0.9, 0, 0
83, 0.9, 0, 0.1
84, 0.9, 0, 0.2
85, 0.9, 0.1, 0
86, 0.9, 0.1, 0.1
87, 0.9, 0.1, 0.2
88, 0.9, 0.2, 0
89, 0.9, 0.2, 0.1
90, 0.9, 0.2, 0.2
91, 1, 0, 0
92, 1, 0, 0.1
93, 1, 0, 0.2
94, 1, 0.1, 0
95, 1, 0.1, 0.1
96, 1, 0.1, 0.2
97, 1, 0.2, 0
98, 1, 0.2, 0.1
99, 1, 0.2, 0.2
*Element, Type=C3D8
1, 1, 4, 5, 2, 10, 13, 14, 11
2, 2, 5, 6, 3, 11, 14, 15, 12
3, 4, 7, 8, 5, 13, 16, 17, 14
4, 5, 8, 9, 6, 14, 17, 18, 15
5, 10, 13, 14, 11, 19, 22, 23, 20
6, 11, 14, 15, 12, 20, 23, 24, 21
7, 13, 16, 17, 14, 22, 25, 26, 23
8, 14, 17, 18, 15, 23, 26, 27, 24
9, 19, 22, 23, 20, 28, 31, 32, 29
10, 20, 23, 24, 21, 29, 32, 33, 30
11, 22, 25, 26, 23, 31, 34, 35, 32
12, 23, 26, 27, 24, 32, 35, 36, 33
13, 28, 31, 32, 29, 37, 40, 41, 38
14, 29, 32, 33, 30, 38, 41, 42, 39
15, 31, 34, 35, 32, 40, 43, 44, 41
16, 32, 35, 36, 33, 41, 44, 45, 42
17, 37, 40, 41, 38, 46, 49, 50, 47
18, 38, 41, 42, 39, 47, 50, 51, 48
19, 40, 43, 44, 41, 49, 52, 53, 50
20, 41, 44, 45, 42, 50, 53, 54, 51
21, 46, 49, 50, 47, 55, 58, 59, 56
22, 47, 50, 51, 48, 56, 59, 60, 57
23, 49, 52, 53, 50, 58, 61, 62, 59
24, 50, 53, 54, 51, 59, 62, 63, 60
25, 55, 58, 59, 56, 64, 67, 68, 65
26, 56, 59, 60, 57, 65, 68, 69, 66
27, 58, 61, 62, 59, 67, 70, 71, 68
28, 59, 62, 63, 60, 68, 71, 72, 69
29, 64, 67, 68, 65, 73, 76, 77, 74
30, 65, 68, 69, 66, 74, 77, 78, 75
31, 67, 70, 71, 68, 76, 79, 80, 77
32, 68, 71, 72, 69, 77, 80, 81, 78
33, 73, 76, 77, 74, 82, 85, 86, 83
34, 74, 77, 78, 75, 83, 86, 87, 84
35, 76, 79, 80, 77, 85, 88, 89, 86
36, 77, 80, 81, 78, 86, 89, 90, 87
37, 82, 85, 86, 83, 91, 94, 95, 92
38, 83, 86, 87, 84, 92, 95, 96, 93
39, 85, 88, 89, 86, 94, 97, 98, 95
40, 86, 89, 90, 87, 95, 98, 99, 96
*ElSet, ElSet=BAR_STRONG
1, 2, 3, 4, 5, 6, 7, 8, 9, 10, 11, 12, 13, 14, 15, 16
17, 18, 19, 20, 25, 26, 27, 28, 29, 30, 31, 32, 33, 34, 35, 36
37, 38, 39, 40
*ElSet, ElSet=BAR_WEAK
21, 22, 23, 24
*NSet, NSet=X0
1, 2, 3, 4, 5, 6, 7, 8, 9
*NSet, NSet=XL
91, 92, 93, 94, 95, 96, 97, 98, 99
*NSet, NSet=Y0
1, 2, 3, 10, 11, 12, 19, 20, 21, 28, 29, 30, 37, 38, 39, 46
47, 48, 55, 56, 57, 64, 65, 66, 73, 74, 75, 82, 83, 84, 91, 92
93
*NSet, NSet=Z0
1, 4, 7, 10, 13, 16, 19, 22, 25, 28, 31, 34, 37, 40, 43, 46
49, 52, 55, 58, 61, 64, 67, 70, 73, 76, 79, 82, 85, 88, 91, 94
97
*NSet, NSet=ALLN
1, 2, 3, 4, 5, 6, 7, 8, 9, 10, 11, 12, 13, 14, 15, 16
17, 18, 19, 20, 21, 22, 23, 24, 25, 26, 27, 28, 29, 30, 31, 32
33, 34, 35, 36, 37, 38, 39, 40, 41, 42, 43, 44, 45, 46, 47, 48
49, 50, 51, 52, 53, 54, 55, 56, 57, 58, 59, 60, 61, 62, 63, 64
65, 66, 67, 68, 69, 70, 71, 72, 73, 74, 75, 76, 77, 78, 79, 80
81, 82, 83, 84, 85, 86, 87, 88, 89, 90, 91, 92, 93, 94, 95, 96
97, 98, 99
*Material, Name=SIC_MATRIX_BAR
*Depvar
20,
1, DMT, Matrix tensile damage
2, DMC, Matrix compressive damage
3, RMT, Matrix maximum tensile criterion
4, RMC, Matrix maximum compressive criterion
5, DMACT, Stress-state-active matrix damage
6, I1SGN, Sign of first effective-stress invariant
7, MMODE, Dominant matrix mode
8, TMINIT, First matrix damage-initiation temperature
9, EQPS, Equivalent plastic strain
10, ATEFF, Effective softening factor (crack band)
11, MDJUMP, Matrix maximum historical damage jump
12, MCUTREQ, Matrix minimum historical PNEWDT factor
13, MTJUMP, Temperature at maximum matrix damage jump
14, MRJUMP, Criterion at maximum matrix damage jump
15, EP11, Plastic strain 11
16, EP22, Plastic strain 22
17, EP33, Plastic strain 33
18, EP12, Plastic strain 12
19, EP13, Plastic strain 13
20, EP23, Plastic strain 23
*User Material, constants=22
2, 350000, 0.2, 310, 310, 0, 0, 0.9
0.9, 0.05, 0.03, 3, 0.25, 1, 0.031, 0.031
250, 100000, 1.15, 0.75, 0.5, 30
*Material, Name=SIC_MATRIX_BAR_WEAK
*Depvar
20,
1, DMT, Matrix tensile damage
2, DMC, Matrix compressive damage
3, RMT, Matrix maximum tensile criterion
4, RMC, Matrix maximum compressive criterion
5, DMACT, Stress-state-active matrix damage
6, I1SGN, Sign of first effective-stress invariant
7, MMODE, Dominant matrix mode
8, TMINIT, First matrix damage-initiation temperature
9, EQPS, Equivalent plastic strain
10, ATEFF, Effective softening factor (crack band)
11, MDJUMP, Matrix maximum historical damage jump
12, MCUTREQ, Matrix minimum historical PNEWDT factor
13, MTJUMP, Temperature at maximum matrix damage jump
14, MRJUMP, Criterion at maximum matrix damage jump
15, EP11, Plastic strain 11
16, EP22, Plastic strain 22
17, EP33, Plastic strain 33
18, EP12, Plastic strain 12
19, EP13, Plastic strain 13
20, EP23, Plastic strain 23
*User Material, constants=22
2, 350000, 0.2, 248, 248, 0, 0, 0.9
0.9, 0.05, 0.03, 3, 0.25, 1, 0.031, 0.031
250, 100000, 1.15, 0.75, 0.5, 30
*Solid Section, ElSet=BAR_STRONG, Material=SIC_MATRIX_BAR
1.0,
*Solid Section, ElSet=BAR_WEAK, Material=SIC_MATRIX_BAR_WEAK
1.0,
*Boundary
X0, 1, 1
Y0, 2, 2
Z0, 3, 3
*Step, Name=Tension, nlgeom=NO, inc=100000
displacement-controlled tension to localisation and beyond
*Static, stabilize=2e-4, allsdtol=0.05, continue=NO
0.002, 1.0, 1e-8, 0.005
*Controls, parameters=time incrementation
 12, 16, , 40, , , , 8, , ,
*Controls, parameters=field, field=displacement
 , 1
*Boundary
XL, 1, 1, 2.00000000e-02
*Output, field, number interval=200
*Element Output, directions=YES
S, E, IVOL, SDV
*Node Output
U, RF
*Output, history, frequency=1
*Node Output, nset=XL
U1, RF1
*Energy Output
ALLIE, ALLSD, ALLWK, ALLPD
*End Step
