*Heading
 crack-band mesh-objectivity bar, 20 x 4 x 4 cubic C3D8, h=0.05 mm
*Node
1, 0, 0, 0
2, 0, 0, 0.05
3, 0, 0, 0.1
4, 0, 0, 0.15
5, 0, 0, 0.2
6, 0, 0.05, 0
7, 0, 0.05, 0.05
8, 0, 0.05, 0.1
9, 0, 0.05, 0.15
10, 0, 0.05, 0.2
11, 0, 0.1, 0
12, 0, 0.1, 0.05
13, 0, 0.1, 0.1
14, 0, 0.1, 0.15
15, 0, 0.1, 0.2
16, 0, 0.15, 0
17, 0, 0.15, 0.05
18, 0, 0.15, 0.1
19, 0, 0.15, 0.15
20, 0, 0.15, 0.2
21, 0, 0.2, 0
22, 0, 0.2, 0.05
23, 0, 0.2, 0.1
24, 0, 0.2, 0.15
25, 0, 0.2, 0.2
26, 0.05, 0, 0
27, 0.05, 0, 0.05
28, 0.05, 0, 0.1
29, 0.05, 0, 0.15
30, 0.05, 0, 0.2
31, 0.05, 0.05, 0
32, 0.05, 0.05, 0.05
33, 0.05, 0.05, 0.1
34, 0.05, 0.05, 0.15
35, 0.05, 0.05, 0.2
36, 0.05, 0.1, 0
37, 0.05, 0.1, 0.05
38, 0.05, 0.1, 0.1
39, 0.05, 0.1, 0.15
40, 0.05, 0.1, 0.2
41, 0.05, 0.15, 0
42, 0.05, 0.15, 0.05
43, 0.05, 0.15, 0.1
44, 0.05, 0.15, 0.15
45, 0.05, 0.15, 0.2
46, 0.05, 0.2, 0
47, 0.05, 0.2, 0.05
48, 0.05, 0.2, 0.1
49, 0.05, 0.2, 0.15
50, 0.05, 0.2, 0.2
51, 0.1, 0, 0
52, 0.1, 0, 0.05
53, 0.1, 0, 0.1
54, 0.1, 0, 0.15
55, 0.1, 0, 0.2
56, 0.1, 0.05, 0
57, 0.1, 0.05, 0.05
58, 0.1, 0.05, 0.1
59, 0.1, 0.05, 0.15
60, 0.1, 0.05, 0.2
61, 0.1, 0.1, 0
62, 0.1, 0.1, 0.05
63, 0.1, 0.1, 0.1
64, 0.1, 0.1, 0.15
65, 0.1, 0.1, 0.2
66, 0.1, 0.15, 0
67, 0.1, 0.15, 0.05
68, 0.1, 0.15, 0.1
69, 0.1, 0.15, 0.15
70, 0.1, 0.15, 0.2
71, 0.1, 0.2, 0
72, 0.1, 0.2, 0.05
73, 0.1, 0.2, 0.1
74, 0.1, 0.2, 0.15
75, 0.1, 0.2, 0.2
76, 0.15, 0, 0
77, 0.15, 0, 0.05
78, 0.15, 0, 0.1
79, 0.15, 0, 0.15
80, 0.15, 0, 0.2
81, 0.15, 0.05, 0
82, 0.15, 0.05, 0.05
83, 0.15, 0.05, 0.1
84, 0.15, 0.05, 0.15
85, 0.15, 0.05, 0.2
86, 0.15, 0.1, 0
87, 0.15, 0.1, 0.05
88, 0.15, 0.1, 0.1
89, 0.15, 0.1, 0.15
90, 0.15, 0.1, 0.2
91, 0.15, 0.15, 0
92, 0.15, 0.15, 0.05
93, 0.15, 0.15, 0.1
94, 0.15, 0.15, 0.15
95, 0.15, 0.15, 0.2
96, 0.15, 0.2, 0
97, 0.15, 0.2, 0.05
98, 0.15, 0.2, 0.1
99, 0.15, 0.2, 0.15
100, 0.15, 0.2, 0.2
101, 0.2, 0, 0
102, 0.2, 0, 0.05
103, 0.2, 0, 0.1
104, 0.2, 0, 0.15
105, 0.2, 0, 0.2
106, 0.2, 0.05, 0
107, 0.2, 0.05, 0.05
108, 0.2, 0.05, 0.1
109, 0.2, 0.05, 0.15
110, 0.2, 0.05, 0.2
111, 0.2, 0.1, 0
112, 0.2, 0.1, 0.05
113, 0.2, 0.1, 0.1
114, 0.2, 0.1, 0.15
115, 0.2, 0.1, 0.2
116, 0.2, 0.15, 0
117, 0.2, 0.15, 0.05
118, 0.2, 0.15, 0.1
119, 0.2, 0.15, 0.15
120, 0.2, 0.15, 0.2
121, 0.2, 0.2, 0
122, 0.2, 0.2, 0.05
123, 0.2, 0.2, 0.1
124, 0.2, 0.2, 0.15
125, 0.2, 0.2, 0.2
126, 0.25, 0, 0
127, 0.25, 0, 0.05
128, 0.25, 0, 0.1
129, 0.25, 0, 0.15
130, 0.25, 0, 0.2
131, 0.25, 0.05, 0
132, 0.25, 0.05, 0.05
133, 0.25, 0.05, 0.1
134, 0.25, 0.05, 0.15
135, 0.25, 0.05, 0.2
136, 0.25, 0.1, 0
137, 0.25, 0.1, 0.05
138, 0.25, 0.1, 0.1
139, 0.25, 0.1, 0.15
140, 0.25, 0.1, 0.2
141, 0.25, 0.15, 0
142, 0.25, 0.15, 0.05
143, 0.25, 0.15, 0.1
144, 0.25, 0.15, 0.15
145, 0.25, 0.15, 0.2
146, 0.25, 0.2, 0
147, 0.25, 0.2, 0.05
148, 0.25, 0.2, 0.1
149, 0.25, 0.2, 0.15
150, 0.25, 0.2, 0.2
151, 0.3, 0, 0
152, 0.3, 0, 0.05
153, 0.3, 0, 0.1
154, 0.3, 0, 0.15
155, 0.3, 0, 0.2
156, 0.3, 0.05, 0
157, 0.3, 0.05, 0.05
158, 0.3, 0.05, 0.1
159, 0.3, 0.05, 0.15
160, 0.3, 0.05, 0.2
161, 0.3, 0.1, 0
162, 0.3, 0.1, 0.05
163, 0.3, 0.1, 0.1
164, 0.3, 0.1, 0.15
165, 0.3, 0.1, 0.2
166, 0.3, 0.15, 0
167, 0.3, 0.15, 0.05
168, 0.3, 0.15, 0.1
169, 0.3, 0.15, 0.15
170, 0.3, 0.15, 0.2
171, 0.3, 0.2, 0
172, 0.3, 0.2, 0.05
173, 0.3, 0.2, 0.1
174, 0.3, 0.2, 0.15
175, 0.3, 0.2, 0.2
176, 0.35, 0, 0
177, 0.35, 0, 0.05
178, 0.35, 0, 0.1
179, 0.35, 0, 0.15
180, 0.35, 0, 0.2
181, 0.35, 0.05, 0
182, 0.35, 0.05, 0.05
183, 0.35, 0.05, 0.1
184, 0.35, 0.05, 0.15
185, 0.35, 0.05, 0.2
186, 0.35, 0.1, 0
187, 0.35, 0.1, 0.05
188, 0.35, 0.1, 0.1
189, 0.35, 0.1, 0.15
190, 0.35, 0.1, 0.2
191, 0.35, 0.15, 0
192, 0.35, 0.15, 0.05
193, 0.35, 0.15, 0.1
194, 0.35, 0.15, 0.15
195, 0.35, 0.15, 0.2
196, 0.35, 0.2, 0
197, 0.35, 0.2, 0.05
198, 0.35, 0.2, 0.1
199, 0.35, 0.2, 0.15
200, 0.35, 0.2, 0.2
201, 0.4, 0, 0
202, 0.4, 0, 0.05
203, 0.4, 0, 0.1
204, 0.4, 0, 0.15
205, 0.4, 0, 0.2
206, 0.4, 0.05, 0
207, 0.4, 0.05, 0.05
208, 0.4, 0.05, 0.1
209, 0.4, 0.05, 0.15
210, 0.4, 0.05, 0.2
211, 0.4, 0.1, 0
212, 0.4, 0.1, 0.05
213, 0.4, 0.1, 0.1
214, 0.4, 0.1, 0.15
215, 0.4, 0.1, 0.2
216, 0.4, 0.15, 0
217, 0.4, 0.15, 0.05
218, 0.4, 0.15, 0.1
219, 0.4, 0.15, 0.15
220, 0.4, 0.15, 0.2
221, 0.4, 0.2, 0
222, 0.4, 0.2, 0.05
223, 0.4, 0.2, 0.1
224, 0.4, 0.2, 0.15
225, 0.4, 0.2, 0.2
226, 0.45, 0, 0
227, 0.45, 0, 0.05
228, 0.45, 0, 0.1
229, 0.45, 0, 0.15
230, 0.45, 0, 0.2
231, 0.45, 0.05, 0
232, 0.45, 0.05, 0.05
233, 0.45, 0.05, 0.1
234, 0.45, 0.05, 0.15
235, 0.45, 0.05, 0.2
236, 0.45, 0.1, 0
237, 0.45, 0.1, 0.05
238, 0.45, 0.1, 0.1
239, 0.45, 0.1, 0.15
240, 0.45, 0.1, 0.2
241, 0.45, 0.15, 0
242, 0.45, 0.15, 0.05
243, 0.45, 0.15, 0.1
244, 0.45, 0.15, 0.15
245, 0.45, 0.15, 0.2
246, 0.45, 0.2, 0
247, 0.45, 0.2, 0.05
248, 0.45, 0.2, 0.1
249, 0.45, 0.2, 0.15
250, 0.45, 0.2, 0.2
251, 0.5, 0, 0
252, 0.5, 0, 0.05
253, 0.5, 0, 0.1
254, 0.5, 0, 0.15
255, 0.5, 0, 0.2
256, 0.5, 0.05, 0
257, 0.5, 0.05, 0.05
258, 0.5, 0.05, 0.1
259, 0.5, 0.05, 0.15
260, 0.5, 0.05, 0.2
261, 0.5, 0.1, 0
262, 0.5, 0.1, 0.05
263, 0.5, 0.1, 0.1
264, 0.5, 0.1, 0.15
265, 0.5, 0.1, 0.2
266, 0.5, 0.15, 0
267, 0.5, 0.15, 0.05
268, 0.5, 0.15, 0.1
269, 0.5, 0.15, 0.15
270, 0.5, 0.15, 0.2
271, 0.5, 0.2, 0
272, 0.5, 0.2, 0.05
273, 0.5, 0.2, 0.1
274, 0.5, 0.2, 0.15
275, 0.5, 0.2, 0.2
276, 0.55, 0, 0
277, 0.55, 0, 0.05
278, 0.55, 0, 0.1
279, 0.55, 0, 0.15
280, 0.55, 0, 0.2
281, 0.55, 0.05, 0
282, 0.55, 0.05, 0.05
283, 0.55, 0.05, 0.1
284, 0.55, 0.05, 0.15
285, 0.55, 0.05, 0.2
286, 0.55, 0.1, 0
287, 0.55, 0.1, 0.05
288, 0.55, 0.1, 0.1
289, 0.55, 0.1, 0.15
290, 0.55, 0.1, 0.2
291, 0.55, 0.15, 0
292, 0.55, 0.15, 0.05
293, 0.55, 0.15, 0.1
294, 0.55, 0.15, 0.15
295, 0.55, 0.15, 0.2
296, 0.55, 0.2, 0
297, 0.55, 0.2, 0.05
298, 0.55, 0.2, 0.1
299, 0.55, 0.2, 0.15
300, 0.55, 0.2, 0.2
301, 0.6, 0, 0
302, 0.6, 0, 0.05
303, 0.6, 0, 0.1
304, 0.6, 0, 0.15
305, 0.6, 0, 0.2
306, 0.6, 0.05, 0
307, 0.6, 0.05, 0.05
308, 0.6, 0.05, 0.1
309, 0.6, 0.05, 0.15
310, 0.6, 0.05, 0.2
311, 0.6, 0.1, 0
312, 0.6, 0.1, 0.05
313, 0.6, 0.1, 0.1
314, 0.6, 0.1, 0.15
315, 0.6, 0.1, 0.2
316, 0.6, 0.15, 0
317, 0.6, 0.15, 0.05
318, 0.6, 0.15, 0.1
319, 0.6, 0.15, 0.15
320, 0.6, 0.15, 0.2
321, 0.6, 0.2, 0
322, 0.6, 0.2, 0.05
323, 0.6, 0.2, 0.1
324, 0.6, 0.2, 0.15
325, 0.6, 0.2, 0.2
326, 0.65, 0, 0
327, 0.65, 0, 0.05
328, 0.65, 0, 0.1
329, 0.65, 0, 0.15
330, 0.65, 0, 0.2
331, 0.65, 0.05, 0
332, 0.65, 0.05, 0.05
333, 0.65, 0.05, 0.1
334, 0.65, 0.05, 0.15
335, 0.65, 0.05, 0.2
336, 0.65, 0.1, 0
337, 0.65, 0.1, 0.05
338, 0.65, 0.1, 0.1
339, 0.65, 0.1, 0.15
340, 0.65, 0.1, 0.2
341, 0.65, 0.15, 0
342, 0.65, 0.15, 0.05
343, 0.65, 0.15, 0.1
344, 0.65, 0.15, 0.15
345, 0.65, 0.15, 0.2
346, 0.65, 0.2, 0
347, 0.65, 0.2, 0.05
348, 0.65, 0.2, 0.1
349, 0.65, 0.2, 0.15
350, 0.65, 0.2, 0.2
351, 0.7, 0, 0
352, 0.7, 0, 0.05
353, 0.7, 0, 0.1
354, 0.7, 0, 0.15
355, 0.7, 0, 0.2
356, 0.7, 0.05, 0
357, 0.7, 0.05, 0.05
358, 0.7, 0.05, 0.1
359, 0.7, 0.05, 0.15
360, 0.7, 0.05, 0.2
361, 0.7, 0.1, 0
362, 0.7, 0.1, 0.05
363, 0.7, 0.1, 0.1
364, 0.7, 0.1, 0.15
365, 0.7, 0.1, 0.2
366, 0.7, 0.15, 0
367, 0.7, 0.15, 0.05
368, 0.7, 0.15, 0.1
369, 0.7, 0.15, 0.15
370, 0.7, 0.15, 0.2
371, 0.7, 0.2, 0
372, 0.7, 0.2, 0.05
373, 0.7, 0.2, 0.1
374, 0.7, 0.2, 0.15
375, 0.7, 0.2, 0.2
376, 0.75, 0, 0
377, 0.75, 0, 0.05
378, 0.75, 0, 0.1
379, 0.75, 0, 0.15
380, 0.75, 0, 0.2
381, 0.75, 0.05, 0
382, 0.75, 0.05, 0.05
383, 0.75, 0.05, 0.1
384, 0.75, 0.05, 0.15
385, 0.75, 0.05, 0.2
386, 0.75, 0.1, 0
387, 0.75, 0.1, 0.05
388, 0.75, 0.1, 0.1
389, 0.75, 0.1, 0.15
390, 0.75, 0.1, 0.2
391, 0.75, 0.15, 0
392, 0.75, 0.15, 0.05
393, 0.75, 0.15, 0.1
394, 0.75, 0.15, 0.15
395, 0.75, 0.15, 0.2
396, 0.75, 0.2, 0
397, 0.75, 0.2, 0.05
398, 0.75, 0.2, 0.1
399, 0.75, 0.2, 0.15
400, 0.75, 0.2, 0.2
401, 0.8, 0, 0
402, 0.8, 0, 0.05
403, 0.8, 0, 0.1
404, 0.8, 0, 0.15
405, 0.8, 0, 0.2
406, 0.8, 0.05, 0
407, 0.8, 0.05, 0.05
408, 0.8, 0.05, 0.1
409, 0.8, 0.05, 0.15
410, 0.8, 0.05, 0.2
411, 0.8, 0.1, 0
412, 0.8, 0.1, 0.05
413, 0.8, 0.1, 0.1
414, 0.8, 0.1, 0.15
415, 0.8, 0.1, 0.2
416, 0.8, 0.15, 0
417, 0.8, 0.15, 0.05
418, 0.8, 0.15, 0.1
419, 0.8, 0.15, 0.15
420, 0.8, 0.15, 0.2
421, 0.8, 0.2, 0
422, 0.8, 0.2, 0.05
423, 0.8, 0.2, 0.1
424, 0.8, 0.2, 0.15
425, 0.8, 0.2, 0.2
426, 0.85, 0, 0
427, 0.85, 0, 0.05
428, 0.85, 0, 0.1
429, 0.85, 0, 0.15
430, 0.85, 0, 0.2
431, 0.85, 0.05, 0
432, 0.85, 0.05, 0.05
433, 0.85, 0.05, 0.1
434, 0.85, 0.05, 0.15
435, 0.85, 0.05, 0.2
436, 0.85, 0.1, 0
437, 0.85, 0.1, 0.05
438, 0.85, 0.1, 0.1
439, 0.85, 0.1, 0.15
440, 0.85, 0.1, 0.2
441, 0.85, 0.15, 0
442, 0.85, 0.15, 0.05
443, 0.85, 0.15, 0.1
444, 0.85, 0.15, 0.15
445, 0.85, 0.15, 0.2
446, 0.85, 0.2, 0
447, 0.85, 0.2, 0.05
448, 0.85, 0.2, 0.1
449, 0.85, 0.2, 0.15
450, 0.85, 0.2, 0.2
451, 0.9, 0, 0
452, 0.9, 0, 0.05
453, 0.9, 0, 0.1
454, 0.9, 0, 0.15
455, 0.9, 0, 0.2
456, 0.9, 0.05, 0
457, 0.9, 0.05, 0.05
458, 0.9, 0.05, 0.1
459, 0.9, 0.05, 0.15
460, 0.9, 0.05, 0.2
461, 0.9, 0.1, 0
462, 0.9, 0.1, 0.05
463, 0.9, 0.1, 0.1
464, 0.9, 0.1, 0.15
465, 0.9, 0.1, 0.2
466, 0.9, 0.15, 0
467, 0.9, 0.15, 0.05
468, 0.9, 0.15, 0.1
469, 0.9, 0.15, 0.15
470, 0.9, 0.15, 0.2
471, 0.9, 0.2, 0
472, 0.9, 0.2, 0.05
473, 0.9, 0.2, 0.1
474, 0.9, 0.2, 0.15
475, 0.9, 0.2, 0.2
476, 0.95, 0, 0
477, 0.95, 0, 0.05
478, 0.95, 0, 0.1
479, 0.95, 0, 0.15
480, 0.95, 0, 0.2
481, 0.95, 0.05, 0
482, 0.95, 0.05, 0.05
483, 0.95, 0.05, 0.1
484, 0.95, 0.05, 0.15
485, 0.95, 0.05, 0.2
486, 0.95, 0.1, 0
487, 0.95, 0.1, 0.05
488, 0.95, 0.1, 0.1
489, 0.95, 0.1, 0.15
490, 0.95, 0.1, 0.2
491, 0.95, 0.15, 0
492, 0.95, 0.15, 0.05
493, 0.95, 0.15, 0.1
494, 0.95, 0.15, 0.15
495, 0.95, 0.15, 0.2
496, 0.95, 0.2, 0
497, 0.95, 0.2, 0.05
498, 0.95, 0.2, 0.1
499, 0.95, 0.2, 0.15
500, 0.95, 0.2, 0.2
501, 1, 0, 0
502, 1, 0, 0.05
503, 1, 0, 0.1
504, 1, 0, 0.15
505, 1, 0, 0.2
506, 1, 0.05, 0
507, 1, 0.05, 0.05
508, 1, 0.05, 0.1
509, 1, 0.05, 0.15
510, 1, 0.05, 0.2
511, 1, 0.1, 0
512, 1, 0.1, 0.05
513, 1, 0.1, 0.1
514, 1, 0.1, 0.15
515, 1, 0.1, 0.2
516, 1, 0.15, 0
517, 1, 0.15, 0.05
518, 1, 0.15, 0.1
519, 1, 0.15, 0.15
520, 1, 0.15, 0.2
521, 1, 0.2, 0
522, 1, 0.2, 0.05
523, 1, 0.2, 0.1
524, 1, 0.2, 0.15
525, 1, 0.2, 0.2
*Element, Type=C3D8
1, 1, 6, 7, 2, 26, 31, 32, 27
2, 2, 7, 8, 3, 27, 32, 33, 28
3, 3, 8, 9, 4, 28, 33, 34, 29
4, 4, 9, 10, 5, 29, 34, 35, 30
5, 6, 11, 12, 7, 31, 36, 37, 32
6, 7, 12, 13, 8, 32, 37, 38, 33
7, 8, 13, 14, 9, 33, 38, 39, 34
8, 9, 14, 15, 10, 34, 39, 40, 35
9, 11, 16, 17, 12, 36, 41, 42, 37
10, 12, 17, 18, 13, 37, 42, 43, 38
11, 13, 18, 19, 14, 38, 43, 44, 39
12, 14, 19, 20, 15, 39, 44, 45, 40
13, 16, 21, 22, 17, 41, 46, 47, 42
14, 17, 22, 23, 18, 42, 47, 48, 43
15, 18, 23, 24, 19, 43, 48, 49, 44
16, 19, 24, 25, 20, 44, 49, 50, 45
17, 26, 31, 32, 27, 51, 56, 57, 52
18, 27, 32, 33, 28, 52, 57, 58, 53
19, 28, 33, 34, 29, 53, 58, 59, 54
20, 29, 34, 35, 30, 54, 59, 60, 55
21, 31, 36, 37, 32, 56, 61, 62, 57
22, 32, 37, 38, 33, 57, 62, 63, 58
23, 33, 38, 39, 34, 58, 63, 64, 59
24, 34, 39, 40, 35, 59, 64, 65, 60
25, 36, 41, 42, 37, 61, 66, 67, 62
26, 37, 42, 43, 38, 62, 67, 68, 63
27, 38, 43, 44, 39, 63, 68, 69, 64
28, 39, 44, 45, 40, 64, 69, 70, 65
29, 41, 46, 47, 42, 66, 71, 72, 67
30, 42, 47, 48, 43, 67, 72, 73, 68
31, 43, 48, 49, 44, 68, 73, 74, 69
32, 44, 49, 50, 45, 69, 74, 75, 70
33, 51, 56, 57, 52, 76, 81, 82, 77
34, 52, 57, 58, 53, 77, 82, 83, 78
35, 53, 58, 59, 54, 78, 83, 84, 79
36, 54, 59, 60, 55, 79, 84, 85, 80
37, 56, 61, 62, 57, 81, 86, 87, 82
38, 57, 62, 63, 58, 82, 87, 88, 83
39, 58, 63, 64, 59, 83, 88, 89, 84
40, 59, 64, 65, 60, 84, 89, 90, 85
41, 61, 66, 67, 62, 86, 91, 92, 87
42, 62, 67, 68, 63, 87, 92, 93, 88
43, 63, 68, 69, 64, 88, 93, 94, 89
44, 64, 69, 70, 65, 89, 94, 95, 90
45, 66, 71, 72, 67, 91, 96, 97, 92
46, 67, 72, 73, 68, 92, 97, 98, 93
47, 68, 73, 74, 69, 93, 98, 99, 94
48, 69, 74, 75, 70, 94, 99, 100, 95
49, 76, 81, 82, 77, 101, 106, 107, 102
50, 77, 82, 83, 78, 102, 107, 108, 103
51, 78, 83, 84, 79, 103, 108, 109, 104
52, 79, 84, 85, 80, 104, 109, 110, 105
53, 81, 86, 87, 82, 106, 111, 112, 107
54, 82, 87, 88, 83, 107, 112, 113, 108
55, 83, 88, 89, 84, 108, 113, 114, 109
56, 84, 89, 90, 85, 109, 114, 115, 110
57, 86, 91, 92, 87, 111, 116, 117, 112
58, 87, 92, 93, 88, 112, 117, 118, 113
59, 88, 93, 94, 89, 113, 118, 119, 114
60, 89, 94, 95, 90, 114, 119, 120, 115
61, 91, 96, 97, 92, 116, 121, 122, 117
62, 92, 97, 98, 93, 117, 122, 123, 118
63, 93, 98, 99, 94, 118, 123, 124, 119
64, 94, 99, 100, 95, 119, 124, 125, 120
65, 101, 106, 107, 102, 126, 131, 132, 127
66, 102, 107, 108, 103, 127, 132, 133, 128
67, 103, 108, 109, 104, 128, 133, 134, 129
68, 104, 109, 110, 105, 129, 134, 135, 130
69, 106, 111, 112, 107, 131, 136, 137, 132
70, 107, 112, 113, 108, 132, 137, 138, 133
71, 108, 113, 114, 109, 133, 138, 139, 134
72, 109, 114, 115, 110, 134, 139, 140, 135
73, 111, 116, 117, 112, 136, 141, 142, 137
74, 112, 117, 118, 113, 137, 142, 143, 138
75, 113, 118, 119, 114, 138, 143, 144, 139
76, 114, 119, 120, 115, 139, 144, 145, 140
77, 116, 121, 122, 117, 141, 146, 147, 142
78, 117, 122, 123, 118, 142, 147, 148, 143
79, 118, 123, 124, 119, 143, 148, 149, 144
80, 119, 124, 125, 120, 144, 149, 150, 145
81, 126, 131, 132, 127, 151, 156, 157, 152
82, 127, 132, 133, 128, 152, 157, 158, 153
83, 128, 133, 134, 129, 153, 158, 159, 154
84, 129, 134, 135, 130, 154, 159, 160, 155
85, 131, 136, 137, 132, 156, 161, 162, 157
86, 132, 137, 138, 133, 157, 162, 163, 158
87, 133, 138, 139, 134, 158, 163, 164, 159
88, 134, 139, 140, 135, 159, 164, 165, 160
89, 136, 141, 142, 137, 161, 166, 167, 162
90, 137, 142, 143, 138, 162, 167, 168, 163
91, 138, 143, 144, 139, 163, 168, 169, 164
92, 139, 144, 145, 140, 164, 169, 170, 165
93, 141, 146, 147, 142, 166, 171, 172, 167
94, 142, 147, 148, 143, 167, 172, 173, 168
95, 143, 148, 149, 144, 168, 173, 174, 169
96, 144, 149, 150, 145, 169, 174, 175, 170
97, 151, 156, 157, 152, 176, 181, 182, 177
98, 152, 157, 158, 153, 177, 182, 183, 178
99, 153, 158, 159, 154, 178, 183, 184, 179
100, 154, 159, 160, 155, 179, 184, 185, 180
101, 156, 161, 162, 157, 181, 186, 187, 182
102, 157, 162, 163, 158, 182, 187, 188, 183
103, 158, 163, 164, 159, 183, 188, 189, 184
104, 159, 164, 165, 160, 184, 189, 190, 185
105, 161, 166, 167, 162, 186, 191, 192, 187
106, 162, 167, 168, 163, 187, 192, 193, 188
107, 163, 168, 169, 164, 188, 193, 194, 189
108, 164, 169, 170, 165, 189, 194, 195, 190
109, 166, 171, 172, 167, 191, 196, 197, 192
110, 167, 172, 173, 168, 192, 197, 198, 193
111, 168, 173, 174, 169, 193, 198, 199, 194
112, 169, 174, 175, 170, 194, 199, 200, 195
113, 176, 181, 182, 177, 201, 206, 207, 202
114, 177, 182, 183, 178, 202, 207, 208, 203
115, 178, 183, 184, 179, 203, 208, 209, 204
116, 179, 184, 185, 180, 204, 209, 210, 205
117, 181, 186, 187, 182, 206, 211, 212, 207
118, 182, 187, 188, 183, 207, 212, 213, 208
119, 183, 188, 189, 184, 208, 213, 214, 209
120, 184, 189, 190, 185, 209, 214, 215, 210
121, 186, 191, 192, 187, 211, 216, 217, 212
122, 187, 192, 193, 188, 212, 217, 218, 213
123, 188, 193, 194, 189, 213, 218, 219, 214
124, 189, 194, 195, 190, 214, 219, 220, 215
125, 191, 196, 197, 192, 216, 221, 222, 217
126, 192, 197, 198, 193, 217, 222, 223, 218
127, 193, 198, 199, 194, 218, 223, 224, 219
128, 194, 199, 200, 195, 219, 224, 225, 220
129, 201, 206, 207, 202, 226, 231, 232, 227
130, 202, 207, 208, 203, 227, 232, 233, 228
131, 203, 208, 209, 204, 228, 233, 234, 229
132, 204, 209, 210, 205, 229, 234, 235, 230
133, 206, 211, 212, 207, 231, 236, 237, 232
134, 207, 212, 213, 208, 232, 237, 238, 233
135, 208, 213, 214, 209, 233, 238, 239, 234
136, 209, 214, 215, 210, 234, 239, 240, 235
137, 211, 216, 217, 212, 236, 241, 242, 237
138, 212, 217, 218, 213, 237, 242, 243, 238
139, 213, 218, 219, 214, 238, 243, 244, 239
140, 214, 219, 220, 215, 239, 244, 245, 240
141, 216, 221, 222, 217, 241, 246, 247, 242
142, 217, 222, 223, 218, 242, 247, 248, 243
143, 218, 223, 224, 219, 243, 248, 249, 244
144, 219, 224, 225, 220, 244, 249, 250, 245
145, 226, 231, 232, 227, 251, 256, 257, 252
146, 227, 232, 233, 228, 252, 257, 258, 253
147, 228, 233, 234, 229, 253, 258, 259, 254
148, 229, 234, 235, 230, 254, 259, 260, 255
149, 231, 236, 237, 232, 256, 261, 262, 257
150, 232, 237, 238, 233, 257, 262, 263, 258
151, 233, 238, 239, 234, 258, 263, 264, 259
152, 234, 239, 240, 235, 259, 264, 265, 260
153, 236, 241, 242, 237, 261, 266, 267, 262
154, 237, 242, 243, 238, 262, 267, 268, 263
155, 238, 243, 244, 239, 263, 268, 269, 264
156, 239, 244, 245, 240, 264, 269, 270, 265
157, 241, 246, 247, 242, 266, 271, 272, 267
158, 242, 247, 248, 243, 267, 272, 273, 268
159, 243, 248, 249, 244, 268, 273, 274, 269
160, 244, 249, 250, 245, 269, 274, 275, 270
161, 251, 256, 257, 252, 276, 281, 282, 277
162, 252, 257, 258, 253, 277, 282, 283, 278
163, 253, 258, 259, 254, 278, 283, 284, 279
164, 254, 259, 260, 255, 279, 284, 285, 280
165, 256, 261, 262, 257, 281, 286, 287, 282
166, 257, 262, 263, 258, 282, 287, 288, 283
167, 258, 263, 264, 259, 283, 288, 289, 284
168, 259, 264, 265, 260, 284, 289, 290, 285
169, 261, 266, 267, 262, 286, 291, 292, 287
170, 262, 267, 268, 263, 287, 292, 293, 288
171, 263, 268, 269, 264, 288, 293, 294, 289
172, 264, 269, 270, 265, 289, 294, 295, 290
173, 266, 271, 272, 267, 291, 296, 297, 292
174, 267, 272, 273, 268, 292, 297, 298, 293
175, 268, 273, 274, 269, 293, 298, 299, 294
176, 269, 274, 275, 270, 294, 299, 300, 295
177, 276, 281, 282, 277, 301, 306, 307, 302
178, 277, 282, 283, 278, 302, 307, 308, 303
179, 278, 283, 284, 279, 303, 308, 309, 304
180, 279, 284, 285, 280, 304, 309, 310, 305
181, 281, 286, 287, 282, 306, 311, 312, 307
182, 282, 287, 288, 283, 307, 312, 313, 308
183, 283, 288, 289, 284, 308, 313, 314, 309
184, 284, 289, 290, 285, 309, 314, 315, 310
185, 286, 291, 292, 287, 311, 316, 317, 312
186, 287, 292, 293, 288, 312, 317, 318, 313
187, 288, 293, 294, 289, 313, 318, 319, 314
188, 289, 294, 295, 290, 314, 319, 320, 315
189, 291, 296, 297, 292, 316, 321, 322, 317
190, 292, 297, 298, 293, 317, 322, 323, 318
191, 293, 298, 299, 294, 318, 323, 324, 319
192, 294, 299, 300, 295, 319, 324, 325, 320
193, 301, 306, 307, 302, 326, 331, 332, 327
194, 302, 307, 308, 303, 327, 332, 333, 328
195, 303, 308, 309, 304, 328, 333, 334, 329
196, 304, 309, 310, 305, 329, 334, 335, 330
197, 306, 311, 312, 307, 331, 336, 337, 332
198, 307, 312, 313, 308, 332, 337, 338, 333
199, 308, 313, 314, 309, 333, 338, 339, 334
200, 309, 314, 315, 310, 334, 339, 340, 335
201, 311, 316, 317, 312, 336, 341, 342, 337
202, 312, 317, 318, 313, 337, 342, 343, 338
203, 313, 318, 319, 314, 338, 343, 344, 339
204, 314, 319, 320, 315, 339, 344, 345, 340
205, 316, 321, 322, 317, 341, 346, 347, 342
206, 317, 322, 323, 318, 342, 347, 348, 343
207, 318, 323, 324, 319, 343, 348, 349, 344
208, 319, 324, 325, 320, 344, 349, 350, 345
209, 326, 331, 332, 327, 351, 356, 357, 352
210, 327, 332, 333, 328, 352, 357, 358, 353
211, 328, 333, 334, 329, 353, 358, 359, 354
212, 329, 334, 335, 330, 354, 359, 360, 355
213, 331, 336, 337, 332, 356, 361, 362, 357
214, 332, 337, 338, 333, 357, 362, 363, 358
215, 333, 338, 339, 334, 358, 363, 364, 359
216, 334, 339, 340, 335, 359, 364, 365, 360
217, 336, 341, 342, 337, 361, 366, 367, 362
218, 337, 342, 343, 338, 362, 367, 368, 363
219, 338, 343, 344, 339, 363, 368, 369, 364
220, 339, 344, 345, 340, 364, 369, 370, 365
221, 341, 346, 347, 342, 366, 371, 372, 367
222, 342, 347, 348, 343, 367, 372, 373, 368
223, 343, 348, 349, 344, 368, 373, 374, 369
224, 344, 349, 350, 345, 369, 374, 375, 370
225, 351, 356, 357, 352, 376, 381, 382, 377
226, 352, 357, 358, 353, 377, 382, 383, 378
227, 353, 358, 359, 354, 378, 383, 384, 379
228, 354, 359, 360, 355, 379, 384, 385, 380
229, 356, 361, 362, 357, 381, 386, 387, 382
230, 357, 362, 363, 358, 382, 387, 388, 383
231, 358, 363, 364, 359, 383, 388, 389, 384
232, 359, 364, 365, 360, 384, 389, 390, 385
233, 361, 366, 367, 362, 386, 391, 392, 387
234, 362, 367, 368, 363, 387, 392, 393, 388
235, 363, 368, 369, 364, 388, 393, 394, 389
236, 364, 369, 370, 365, 389, 394, 395, 390
237, 366, 371, 372, 367, 391, 396, 397, 392
238, 367, 372, 373, 368, 392, 397, 398, 393
239, 368, 373, 374, 369, 393, 398, 399, 394
240, 369, 374, 375, 370, 394, 399, 400, 395
241, 376, 381, 382, 377, 401, 406, 407, 402
242, 377, 382, 383, 378, 402, 407, 408, 403
243, 378, 383, 384, 379, 403, 408, 409, 404
244, 379, 384, 385, 380, 404, 409, 410, 405
245, 381, 386, 387, 382, 406, 411, 412, 407
246, 382, 387, 388, 383, 407, 412, 413, 408
247, 383, 388, 389, 384, 408, 413, 414, 409
248, 384, 389, 390, 385, 409, 414, 415, 410
249, 386, 391, 392, 387, 411, 416, 417, 412
250, 387, 392, 393, 388, 412, 417, 418, 413
251, 388, 393, 394, 389, 413, 418, 419, 414
252, 389, 394, 395, 390, 414, 419, 420, 415
253, 391, 396, 397, 392, 416, 421, 422, 417
254, 392, 397, 398, 393, 417, 422, 423, 418
255, 393, 398, 399, 394, 418, 423, 424, 419
256, 394, 399, 400, 395, 419, 424, 425, 420
257, 401, 406, 407, 402, 426, 431, 432, 427
258, 402, 407, 408, 403, 427, 432, 433, 428
259, 403, 408, 409, 404, 428, 433, 434, 429
260, 404, 409, 410, 405, 429, 434, 435, 430
261, 406, 411, 412, 407, 431, 436, 437, 432
262, 407, 412, 413, 408, 432, 437, 438, 433
263, 408, 413, 414, 409, 433, 438, 439, 434
264, 409, 414, 415, 410, 434, 439, 440, 435
265, 411, 416, 417, 412, 436, 441, 442, 437
266, 412, 417, 418, 413, 437, 442, 443, 438
267, 413, 418, 419, 414, 438, 443, 444, 439
268, 414, 419, 420, 415, 439, 444, 445, 440
269, 416, 421, 422, 417, 441, 446, 447, 442
270, 417, 422, 423, 418, 442, 447, 448, 443
271, 418, 423, 424, 419, 443, 448, 449, 444
272, 419, 424, 425, 420, 444, 449, 450, 445
273, 426, 431, 432, 427, 451, 456, 457, 452
274, 427, 432, 433, 428, 452, 457, 458, 453
275, 428, 433, 434, 429, 453, 458, 459, 454
276, 429, 434, 435, 430, 454, 459, 460, 455
277, 431, 436, 437, 432, 456, 461, 462, 457
278, 432, 437, 438, 433, 457, 462, 463, 458
279, 433, 438, 439, 434, 458, 463, 464, 459
280, 434, 439, 440, 435, 459, 464, 465, 460
281, 436, 441, 442, 437, 461, 466, 467, 462
282, 437, 442, 443, 438, 462, 467, 468, 463
283, 438, 443, 444, 439, 463, 468, 469, 464
284, 439, 444, 445, 440, 464, 469, 470, 465
285, 441, 446, 447, 442, 466, 471, 472, 467
286, 442, 447, 448, 443, 467, 472, 473, 468
287, 443, 448, 449, 444, 468, 473, 474, 469
288, 444, 449, 450, 445, 469, 474, 475, 470
289, 451, 456, 457, 452, 476, 481, 482, 477
290, 452, 457, 458, 453, 477, 482, 483, 478
291, 453, 458, 459, 454, 478, 483, 484, 479
292, 454, 459, 460, 455, 479, 484, 485, 480
293, 456, 461, 462, 457, 481, 486, 487, 482
294, 457, 462, 463, 458, 482, 487, 488, 483
295, 458, 463, 464, 459, 483, 488, 489, 484
296, 459, 464, 465, 460, 484, 489, 490, 485
297, 461, 466, 467, 462, 486, 491, 492, 487
298, 462, 467, 468, 463, 487, 492, 493, 488
299, 463, 468, 469, 464, 488, 493, 494, 489
300, 464, 469, 470, 465, 489, 494, 495, 490
301, 466, 471, 472, 467, 491, 496, 497, 492
302, 467, 472, 473, 468, 492, 497, 498, 493
303, 468, 473, 474, 469, 493, 498, 499, 494
304, 469, 474, 475, 470, 494, 499, 500, 495
305, 476, 481, 482, 477, 501, 506, 507, 502
306, 477, 482, 483, 478, 502, 507, 508, 503
307, 478, 483, 484, 479, 503, 508, 509, 504
308, 479, 484, 485, 480, 504, 509, 510, 505
309, 481, 486, 487, 482, 506, 511, 512, 507
310, 482, 487, 488, 483, 507, 512, 513, 508
311, 483, 488, 489, 484, 508, 513, 514, 509
312, 484, 489, 490, 485, 509, 514, 515, 510
313, 486, 491, 492, 487, 511, 516, 517, 512
314, 487, 492, 493, 488, 512, 517, 518, 513
315, 488, 493, 494, 489, 513, 518, 519, 514
316, 489, 494, 495, 490, 514, 519, 520, 515
317, 491, 496, 497, 492, 516, 521, 522, 517
318, 492, 497, 498, 493, 517, 522, 523, 518
319, 493, 498, 499, 494, 518, 523, 524, 519
320, 494, 499, 500, 495, 519, 524, 525, 520
*ElSet, ElSet=BAR_STRONG
1, 2, 3, 4, 5, 6, 7, 8, 9, 10, 11, 12, 13, 14, 15, 16
17, 18, 19, 20, 21, 22, 23, 24, 25, 26, 27, 28, 29, 30, 31, 32
33, 34, 35, 36, 37, 38, 39, 40, 41, 42, 43, 44, 45, 46, 47, 48
49, 50, 51, 52, 53, 54, 55, 56, 57, 58, 59, 60, 61, 62, 63, 64
65, 66, 67, 68, 69, 70, 71, 72, 73, 74, 75, 76, 77, 78, 79, 80
81, 82, 83, 84, 85, 86, 87, 88, 89, 90, 91, 92, 93, 94, 95, 96
97, 98, 99, 100, 101, 102, 103, 104, 105, 106, 107, 108, 109, 110, 111, 112
113, 114, 115, 116, 117, 118, 119, 120, 121, 122, 123, 124, 125, 126, 127, 128
129, 130, 131, 132, 133, 134, 135, 136, 137, 138, 139, 140, 141, 142, 143, 144
145, 146, 147, 148, 149, 150, 151, 152, 153, 154, 155, 156, 157, 158, 159, 160
177, 178, 179, 180, 181, 182, 183, 184, 185, 186, 187, 188, 189, 190, 191, 192
193, 194, 195, 196, 197, 198, 199, 200, 201, 202, 203, 204, 205, 206, 207, 208
209, 210, 211, 212, 213, 214, 215, 216, 217, 218, 219, 220, 221, 222, 223, 224
225, 226, 227, 228, 229, 230, 231, 232, 233, 234, 235, 236, 237, 238, 239, 240
241, 242, 243, 244, 245, 246, 247, 248, 249, 250, 251, 252, 253, 254, 255, 256
257, 258, 259, 260, 261, 262, 263, 264, 265, 266, 267, 268, 269, 270, 271, 272
273, 274, 275, 276, 277, 278, 279, 280, 281, 282, 283, 284, 285, 286, 287, 288
289, 290, 291, 292, 293, 294, 295, 296, 297, 298, 299, 300, 301, 302, 303, 304
305, 306, 307, 308, 309, 310, 311, 312, 313, 314, 315, 316, 317, 318, 319, 320
*ElSet, ElSet=BAR_WEAK
161, 162, 163, 164, 165, 166, 167, 168, 169, 170, 171, 172, 173, 174, 175, 176
*NSet, NSet=X0
1, 2, 3, 4, 5, 6, 7, 8, 9, 10, 11, 12, 13, 14, 15, 16
17, 18, 19, 20, 21, 22, 23, 24, 25
*NSet, NSet=XL
501, 502, 503, 504, 505, 506, 507, 508, 509, 510, 511, 512, 513, 514, 515, 516
517, 518, 519, 520, 521, 522, 523, 524, 525
*NSet, NSet=Y0
1, 2, 3, 4, 5, 26, 27, 28, 29, 30, 51, 52, 53, 54, 55, 76
77, 78, 79, 80, 101, 102, 103, 104, 105, 126, 127, 128, 129, 130, 151, 152
153, 154, 155, 176, 177, 178, 179, 180, 201, 202, 203, 204, 205, 226, 227, 228
229, 230, 251, 252, 253, 254, 255, 276, 277, 278, 279, 280, 301, 302, 303, 304
305, 326, 327, 328, 329, 330, 351, 352, 353, 354, 355, 376, 377, 378, 379, 380
401, 402, 403, 404, 405, 426, 427, 428, 429, 430, 451, 452, 453, 454, 455, 476
477, 478, 479, 480, 501, 502, 503, 504, 505
*NSet, NSet=Z0
1, 6, 11, 16, 21, 26, 31, 36, 41, 46, 51, 56, 61, 66, 71, 76
81, 86, 91, 96, 101, 106, 111, 116, 121, 126, 131, 136, 141, 146, 151, 156
161, 166, 171, 176, 181, 186, 191, 196, 201, 206, 211, 216, 221, 226, 231, 236
241, 246, 251, 256, 261, 266, 271, 276, 281, 286, 291, 296, 301, 306, 311, 316
321, 326, 331, 336, 341, 346, 351, 356, 361, 366, 371, 376, 381, 386, 391, 396
401, 406, 411, 416, 421, 426, 431, 436, 441, 446, 451, 456, 461, 466, 471, 476
481, 486, 491, 496, 501, 506, 511, 516, 521
*NSet, NSet=ALLN
1, 2, 3, 4, 5, 6, 7, 8, 9, 10, 11, 12, 13, 14, 15, 16
17, 18, 19, 20, 21, 22, 23, 24, 25, 26, 27, 28, 29, 30, 31, 32
33, 34, 35, 36, 37, 38, 39, 40, 41, 42, 43, 44, 45, 46, 47, 48
49, 50, 51, 52, 53, 54, 55, 56, 57, 58, 59, 60, 61, 62, 63, 64
65, 66, 67, 68, 69, 70, 71, 72, 73, 74, 75, 76, 77, 78, 79, 80
81, 82, 83, 84, 85, 86, 87, 88, 89, 90, 91, 92, 93, 94, 95, 96
97, 98, 99, 100, 101, 102, 103, 104, 105, 106, 107, 108, 109, 110, 111, 112
113, 114, 115, 116, 117, 118, 119, 120, 121, 122, 123, 124, 125, 126, 127, 128
129, 130, 131, 132, 133, 134, 135, 136, 137, 138, 139, 140, 141, 142, 143, 144
145, 146, 147, 148, 149, 150, 151, 152, 153, 154, 155, 156, 157, 158, 159, 160
161, 162, 163, 164, 165, 166, 167, 168, 169, 170, 171, 172, 173, 174, 175, 176
177, 178, 179, 180, 181, 182, 183, 184, 185, 186, 187, 188, 189, 190, 191, 192
193, 194, 195, 196, 197, 198, 199, 200, 201, 202, 203, 204, 205, 206, 207, 208
209, 210, 211, 212, 213, 214, 215, 216, 217, 218, 219, 220, 221, 222, 223, 224
225, 226, 227, 228, 229, 230, 231, 232, 233, 234, 235, 236, 237, 238, 239, 240
241, 242, 243, 244, 245, 246, 247, 248, 249, 250, 251, 252, 253, 254, 255, 256
257, 258, 259, 260, 261, 262, 263, 264, 265, 266, 267, 268, 269, 270, 271, 272
273, 274, 275, 276, 277, 278, 279, 280, 281, 282, 283, 284, 285, 286, 287, 288
289, 290, 291, 292, 293, 294, 295, 296, 297, 298, 299, 300, 301, 302, 303, 304
305, 306, 307, 308, 309, 310, 311, 312, 313, 314, 315, 316, 317, 318, 319, 320
321, 322, 323, 324, 325, 326, 327, 328, 329, 330, 331, 332, 333, 334, 335, 336
337, 338, 339, 340, 341, 342, 343, 344, 345, 346, 347, 348, 349, 350, 351, 352
353, 354, 355, 356, 357, 358, 359, 360, 361, 362, 363, 364, 365, 366, 367, 368
369, 370, 371, 372, 373, 374, 375, 376, 377, 378, 379, 380, 381, 382, 383, 384
385, 386, 387, 388, 389, 390, 391, 392, 393, 394, 395, 396, 397, 398, 399, 400
401, 402, 403, 404, 405, 406, 407, 408, 409, 410, 411, 412, 413, 414, 415, 416
417, 418, 419, 420, 421, 422, 423, 424, 425, 426, 427, 428, 429, 430, 431, 432
433, 434, 435, 436, 437, 438, 439, 440, 441, 442, 443, 444, 445, 446, 447, 448
449, 450, 451, 452, 453, 454, 455, 456, 457, 458, 459, 460, 461, 462, 463, 464
465, 466, 467, 468, 469, 470, 471, 472, 473, 474, 475, 476, 477, 478, 479, 480
481, 482, 483, 484, 485, 486, 487, 488, 489, 490, 491, 492, 493, 494, 495, 496
497, 498, 499, 500, 501, 502, 503, 504, 505, 506, 507, 508, 509, 510, 511, 512
513, 514, 515, 516, 517, 518, 519, 520, 521, 522, 523, 524, 525
*Material, Name=SIC_MATRIX_BAR
*Depvar
20,
1, DMT, Matrix tensile damage
2, DMC, Matrix compressive damage
3, RMT, Matrix maximum tensile criterion
4, RMC, Matrix maximum compressive criterion
5, DMACT, Stress-state-active matrix damage
6, I1SGN, Sign of first effective-stress invariant
7, MMODE, Dominant matrix mode
8, TMINIT, First matrix damage-initiation temperature
9, EQPS, Equivalent plastic strain
10, ATEFF, Effective softening factor (crack band)
11, MDJUMP, Matrix maximum historical damage jump
12, MCUTREQ, Matrix minimum historical PNEWDT factor
13, MTJUMP, Temperature at maximum matrix damage jump
14, MRJUMP, Criterion at maximum matrix damage jump
15, EP11, Plastic strain 11
16, EP22, Plastic strain 22
17, EP33, Plastic strain 33
18, EP12, Plastic strain 12
19, EP13, Plastic strain 13
20, EP23, Plastic strain 23
*User Material, constants=22
2, 350000, 0.2, 310, 310, 0, 0, 0.9
0.9, 0.05, 0.03, 3, 0.25, 1, 0.031, 0.031
250, 100000, 1.15, 0.75, 0.5, 30
*Material, Name=SIC_MATRIX_BAR_WEAK
*Depvar
20,
1, DMT, Matrix tensile damage
2, DMC, Matrix compressive damage
3, RMT, Matrix maximum tensile criterion
4, RMC, Matrix maximum compressive criterion
5, DMACT, Stress-state-active matrix damage
6, I1SGN, Sign of first effective-stress invariant
7, MMODE, Dominant matrix mode
8, TMINIT, First matrix damage-initiation temperature
9, EQPS, Equivalent plastic strain
10, ATEFF, Effective softening factor (crack band)
11, MDJUMP, Matrix maximum historical damage jump
12, MCUTREQ, Matrix minimum historical PNEWDT factor
13, MTJUMP, Temperature at maximum matrix damage jump
14, MRJUMP, Criterion at maximum matrix damage jump
15, EP11, Plastic strain 11
16, EP22, Plastic strain 22
17, EP33, Plastic strain 33
18, EP12, Plastic strain 12
19, EP13, Plastic strain 13
20, EP23, Plastic strain 23
*User Material, constants=22
2, 350000, 0.2, 294.5, 294.5, 0, 0, 0.9
0.9, 0.05, 0.03, 3, 0.25, 1, 0.031, 0.031
250, 100000, 1.15, 0.75, 0.5, 30
*Solid Section, ElSet=BAR_STRONG, Material=SIC_MATRIX_BAR
1.0,
*Solid Section, ElSet=BAR_WEAK, Material=SIC_MATRIX_BAR_WEAK
1.0,
*Boundary
X0, 1, 1
Y0, 2, 2
Z0, 3, 3
*Step, Name=Tension, nlgeom=NO, inc=100000
displacement-controlled tension to localisation and beyond
*Static, stabilize=2e-4, allsdtol=0.05, continue=NO
0.002, 1.0, 1e-8, 0.005
*Controls, parameters=time incrementation
 12, 16, , 40, , , , 8, , ,
*Controls, parameters=field, field=displacement
 , 1
*Boundary
XL, 1, 1, 4.00000000e-03
*Output, field, number interval=200
*Element Output, directions=YES
S, E, IVOL, SDV
*Node Output
U, RF
*Output, history, frequency=1
*Node Output, nset=XL
U1, RF1
*Energy Output
ALLIE, ALLSD, ALLWK, ALLPD
*End Step
